NAME : prob35b.7904.tour
COMMENT : Cost = 0_7904
COMMENT : Found by LKH [Keld Helsgaun] Sun Sep 17 01:06:45 2017
TYPE : TOUR
DIMENSION : 71
TOUR_SECTION
1
58
38
45
48
44
71
9
64
41
66
65
60
69
57
59
31
55
34
53
67
47
50
32
37
46
49
22
2
51
25
23
52
6
17
36
56
62
68
30
3
15
39
43
63
33
61
8
21
42
7
14
10
54
20
29
16
28
40
5
27
19
11
4
24
12
13
70
35
26
18
-1
EOF
